Route #1: 6 60 84 17 61 16 86 38 44 14 42 43 15 57 87 97 92 37 98 100 91 85 93 59 99 96 95 94
Route #2: 89 18 83 5 45 8 46 47 36 49 64 63 90 10 62 11 19 48 82 7 88 31 52 27
Route #3: 28 76 50 51 9 81 33 79 3 77 68 80 29 78 34 35 65 71 66 20 32 30 70 1 69
Route #4: 53 58 40 26 12 54 24 55 25 4 39 67 23 56 75 41 22 74 72 73 21 2 13
cost 725
